(declare-const a Real)
(declare-const b Real)
(declare-const c Real)
(assert (= (* a b c) 1))
(assert (> a 0))
(assert (> b 0))
(assert (> c 0))
(assert (not (<= (+ (* -28277536 (pow b 4)) (* -21691168 (pow a 4)) (* (pow (+ 3329856 (* 100684672 a (pow b 3))) -3) (pow (+ (* 1664928 a) (* 1664928 b) (* 100684672 a (pow b 3))) 4)) (* -56623104 (pow a (pow 3 -1)) (pow b (/ 11 3))) (* -28311552 (pow a (/ 10 3)) (pow b (/ 2 3))) (* 30888832 b (pow a 3))) 0)))
(check-sat)
(get-model)
(exit)